data/benchmarks/bayes/75-15-1-q.cnf
p cnf 1065 1027
c weights 0.989964 0.010036000000000045 1 1 1 1 1 1 1 1 1 1 1 1 1 1 1 1 1 1 1 1 1 1 1 1 1 1 1 1 1 1 1 1 1 1 1 1 1 1 1 1 1 1 1 1 1 1 1 1 1 1 1 1 1 1 1 1 1 1 1 1 1 1 1 1 1 1 1 1 1 1 1 1 1 1 1 1 1 1 1 1 1 1 1 1 1 1 1 1 1 1 1 1 1 1 1 1 1 1 1 1 1 1 1 1 1 1 1 1 1 1 1 1 1 1 1 1 1 1 1 1 1 1 1 1 1 1 1 1 1 1 1 1 1 1 1 1 1 1 1 1 1 1 1 1 1 1 1 1 1 1 1 1 1 1 1 1 1 1 1 1 1 1 1 1 1 1 1 1 1 1 1 1 1 1 1 1 1 1 1 1 1 1 1 1 1 1 1 1 1 1 1 1 1 1 1 1 1 1 1 1 1 1 1 1 1 1 1 1 1 1 1 1 1 1 1 1 1 1 1 1 1 1 1 1 1 1 1 1 1 1 1 1 1 1 1 1 1 1 1 1 1 1 1 1 1 1 1 1 1 1 1 1 1 1 1 1 1 1 1 1 1 1 1 1 1 1 1 1 1 1 1 1 1 1 1 1 1 1 1 1 1 1 1 1 1 1 1 1 1 1 1 1 1 1 1 1 1 1 1 1 1 1 1 1 1 1 1 1 1 1 1 1 1 1 1 1 1 1 1 1 1 1 1 1 1 1 1 1 1 1 1 1 1 1 1 1 1 1 1 1 1 1 1 1 1 1 1 1 1 1 1 1 1 1 1 1 1 1 1 1 1 1 1 1 1 1 1 1 1 1 1 1 1 1 1 1 1 1 1 1 1 1 1 1 1 1 1 1 1 1 1 1 1 1 1 1 1 1 1 1 1 1 1 1 1 1 1 1 1 1 1 1 1 1 1 1 1 1 1 1 1 1 1 1 1 1 1 1 1 1 1 1 1 1 1 1 1 1 1 1 1 1 1 1 1 1 1 1 0.839311 0.16068899999999997 0.810201 0.18979900000000005 0.5 0.5 0.5 0.5 0.5 0.5 0.5 0.5 0.5 0.5 0.5 0.5 0.5 0.5 0.5 0.5 0.5 0.5 0.5 0.5 0.778271 0.22172899999999995 0.0220661 0.9779339 0.5 0.5 0.5 0.5 0.5 0.5 0.5 0.5 0.5 0.5 0.5 0.5 0.5 0.5 0.5 0.5 0.0853432 0.9146568 0.510112 0.489888 0.5 0.5 0.5 0.5 0.5 0.5 0.5 0.5 0.5 0.5 0.5 0.5 0.340104 0.659896 0.159487 0.8405130000000001 0.41767 0.58233 0.619057 0.38094300000000003 0.5 0.5 0.5 0.5 0.5 0.5 0.5 0.5 0.5 0.5 0.5 0.5 0.5 0.5 0.5 0.5 0.5 0.5 0.5 0.5 0.5 0.5 0.5 0.5 0.5 0.5 0.5 0.5 0.5 0.5 0.5 0.5 0.5 0.5 0.5 0.5 0.5 0.5 0.5 0.5 0.5 0.5 0.5 0.5 0.5 0.5 0.5 0.5 0.441055 0.558945 0.0409124 0.9590876 0.46792 0.53208 0.601172 0.39882799999999996 0.882057 0.11794300000000002 0.674037 0.325963 0.505659 0.49434100000000003 0.318259 0.6817409999999999 0.5 0.5 0.5 0.5 0.5 0.5 0.5 0.5 0.44999 0.55001 0.881687 0.118313 0.884669 0.11533099999999996 0.647519 0.35248100000000004 0.5 0.5 0.5 0.5 0.5 0.5 0.5 0.5 0.5 0.5 0.5 0.5 0.5 0.5 0.5 0.5 0.5 0.5 0.5 0.5 0.5 0.5 0.5 0.5 0.5 0.5 0.5 0.5 0.5 0.5 0.5 0.5 0.5 0.5 0.5 0.5 0.5 0.5 0.5 0.5 0.5 0.5 0.5 0.5 0.5 0.5 0.5 0.5 0.5 0.5 0.5 0.5 0.5 0.5 0.5 0.5 0.5 0.5 0.5 0.5 0.5 0.5 0.5 0.5 0.5 0.5 0.5 0.5 0.5 0.5 0.5 0.5 0.5 0.5 0.5 0.5 0.5 0.5 0.5 0.5 0.5 0.5 0.5 0.5 0.5 0.5 0.5 0.5 0.5 0.5 0.5 0.5 0.145518 0.854482 0.115435 0.884565 0.375925 0.6240749999999999 0.477119 0.5228809999999999 0.5 0.5 0.5 0.5 0.5 0.5 0.5 0.5 0.5 0.5 0.5 0.5 0.5 0.5 0.5 0.5 0.910926 0.08907399999999999 0.117317 0.882683 0.986814 0.013186000000000031 0.039063 0.960937 0.5 0.5 0.5 0.5 0.5 0.5 0.5 0.5 0.5 0.5 0.5 0.5 0.5 0.5 0.5 0.5 0.5 0.5 0.5 0.5 0.437857 0.5621430000000001 0.200542 0.799458 0.050368 0.949632 0.0603453 0.9396547 0.5 0.5 0.5 0.5 0.5 0.5 0.5 0.5 0.5 0.5 0.5 0.5 0.5 0.5 0.5 0.5 0.5 0.5 0.5 0.5 0.5 0.5 0.5 0.5 0.5 0.5 0.5 0.5 0.5 0.5 0.5 0.5 0.5 0.5 0.5 0.5 0.5 0.5 0.5 0.5 0.5 0.5 0.5 0.5 0.5 0.5 0.5 0.5 0.5 0.5 0.5 0.5 0.5 0.5 0.5 0.5 0.5 0.5 0.5 0.5 0.5 0.5 0.5 0.5 0.5 0.5 0.5 0.5 0.5 0.5 0.5 0.5 0.5 0.5 0.5 0.5 0.5 0.5 0.5 0.5 0.824625 0.17537499999999995 0.811371 0.18862900000000005 0.504106 0.49589399999999995 0.961309 0.03869100000000003 0.5 0.5 0.5 0.5 0.5 0.5 0.5 0.5 0.5 0.5 0.5 0.5 0.5 0.5 0.5 0.5 0.5 0.5 0.5 0.5 0.5 0.5 0.5 0.5 0.5 0.5 0.5 0.5 0.829678 0.17032199999999997 0.609586 0.39041400000000004 0.367721 0.632279 0.806025 0.193975 0.5 0.5 0.5 0.5 0.5 0.5 0.5 0.5 0.5 0.5 0.5 0.5 0.5 0.5 0.5 0.5 0.5 0.5 0.5 0.5 0.5 0.5 0.5 0.5 0.5 0.5 0.5 0.5 0.5 0.5 0.5 0.5 0.5 0.5 0.5 0.5 0.5 0.5 0.5 0.5 0.5 0.5 0.5 0.5 0.5 0.5 0.5 0.5 0.5 0.5 0.5 0.5 0.5 0.5 0.5 0.5 0.5 0.5 0.5 0.5 0.5 0.5 0.5 0.5 0.5 0.5 0.5 0.5 0.5 0.5 0.5 0.5 0.5 0.5 0.5 0.5 0.5 0.5 0.5 0.5 0.5 0.5 0.5 0.5 0.5 0.5 0.5 0.5 0.5 0.5 0.5 0.5 0.5 0.5 0.5 0.5 0.5 0.5 0.5 0.5 0.5 0.5 0.5 0.5 0.5 0.5 0.5 0.5 0.5 0.5 0.5 0.5 0.5 0.5 0.5 0.5 0.5 0.5 0.5 0.5 0.5 0.5 0.5 0.5 0.5 0.5 0.5 0.5 0.5 0.5 0.5 0.5 0.261727 0.738273 0.863933 0.13606700000000005 0.427354 0.572646 0.319959 0.680041 0.5 0.5 0.5 0.5 0.5 0.5 0.5 0.5 0.275966 0.7240340000000001 0.952598 0.047402000000000055 0.787061 0.212939 0.850997 0.149003 0.5 0.5 0.5 0.5 0.5 0.5 0.5 0.5 0.5 0.5 0.5 0.5 0.5 0.5 0.5 0.5 0.5 0.5 0.5 0.5 0.5 0.5 0.5 0.5 0.5 0.5 0.5 0.5 0.5 0.5 0.5 0.5 0.673119 0.326881 0.811689 0.188311 0.677556 0.32244399999999995 0.517975 0.48202500000000004 0.5 0.5 0.5 0.5 0.5 0.5 0.5 0.5 0.5 0.5 0.5 0.5 0.5 0.5 0.5 0.5 0.5 0.5 0.5 0.5 0.5 0.5 0.5 0.5 0.5 0.5 0.5 0.5 0.5 0.5 0.5 0.5 0.5 0.5 0.5 0.5 0.5 0.5 0.5 0.5 0.5 0.5 0.5 0.5 0.0652139 0.9347861 0.218317 0.781683 0.362725 0.637275 0.44422 0.5557799999999999 0.5 0.5 0.5 0.5 0.5 0.5 0.5 0.5 0.5 0.5 0.5 0.5 0.5 0.5 0.5 0.5 0.5 0.5 0.5 0.5 0.5 0.5 0.5 0.5 0.5 0.5 0.5 0.5 0.5 0.5 0.5 0.5 0.5 0.5 0.5 0.5 0.5 0.5 0.5 0.5 0.5 0.5 0.5 0.5 0.5 0.5 0.5 0.5 0.812511 0.18748900000000002 0.810784 0.18921600000000005 0.674276 0.325724 0.518181 0.481819 0.5 0.5 0.5 0.5 0.5 0.5 0.5 0.5 0.732037 0.26796299999999995 0.153321 0.846679 0.829252 0.170748 0.900626 0.09937399999999996 0.5 0.5 0.5 0.5 0.5 0.5 0.5 0.5 0.507865 0.492135 0.799172 0.200828 0.5 0.5 0.5 0.5 0.5 0.5 0.5 0.5 0.960719 0.03928100000000001 0.440965 0.559035 0.74113 0.25887000000000004 0.77323 0.22677000000000003 0.5 0.5 0.5 0.5 0.5 0.5 0.5 0.5 0.5 0.5 0.5 0.5 0.5 0.5 0.5 0.5 0.5 0.5 0.5 0.5 0.5 0.5 0.5 0.5 0.5 0.5 0.5 0.5 0.5 0.5 0.5 0.5 0.5 0.5 0.5 0.5 0.5 0.5 0.5 0.5 0.5 0.5 0.5 0.5 0.5 0.5 0.5 0.5 0.685258 0.31474199999999997 0.374716 0.625284 0.231646 0.768354 0.596515 0.403485 0.5 0.5 0.5 0.5 0.5 0.5 0.5 0.5 0.5 0.5 0.5 0.5 0.5 0.5 0.5 0.5 0.5 0.5 0.5 0.5 0.5 0.5 0.5 0.5 0.783464 0.21653599999999995 0.122793 0.877207 0.581806 0.41819399999999995 0.132819 0.867181 0.5 0.5 0.5 0.5 0.5 0.5 0.5 0.5 0.5 0.5 0.5 0.5 0.5 0.5 0.5 0.5 0.5 0.5 0.5 0.5 0.5 0.5 0.5 0.5 0.5 0.5 0.5 0.5 0.5 0.5 0.5 0.5 0.5 0.5 0.5 0.5 0.317523 0.682477 0.0525181 0.9474819 0.488123 0.511877 0.239066 0.760934 0.610917 0.38908299999999996 0.820873 0.17912700000000004 0.968802 0.031197999999999948 0.864714 0.13528600000000002 0.411695 0.5883050000000001 0.690481 0.309519 0.311779 0.688221 0.937893 0.06210700000000002 0.5 0.5 0.5 0.5 0.5 0.5 0.5 0.5 0.5 0.5 0.5 0.5 0.5 0.5 0.5 0.5 0.5 0.5 0.5 0.5 0.5 0.5 0.5 0.5 0.259165 0.740835 0.0920093 0.9079907 0.462696 0.537304 0.498231 0.501769 0.0736131 0.9263869 0.319104 0.680896 0.896793 0.10320700000000005 0.938327 0.06167299999999998 0.5 0.5 0.5 0.5 0.5 0.5 0.5 0.5 0.0851876 0.9148124 0.189869 0.8101309999999999 0.979267 0.020733 0.012748 0.987252 0.5 0.5 0.5 0.5 0.5 0.5 0.5 0.5 0.839366 0.16063400000000005 0.8314 0.16859999999999997 0.813939 0.18606100000000003 0.0905649 0.9094351 0.0416764 0.9583235999999999 0.276635 0.723365 0.5 0.5 0.5 0.5 0.5 0.5 0.5 0.5 0.5 0.5 0.5 0.5 0.5 0.5 0.5 0.5 0.5 0.5 0.5 0.5 0.5 0.5 0.5 0.5 0.5 0.5 0.5 0.5 0.5 0.5 0.5 0.5 0.5 0.5 0.5 0.5 0.5 0.5 0.5 0.5 0.5 0.5 0.5 0.5 0.5 0.5 0.5 0.5 0.5 0.5 0.5 0.5 0.5 0.5 0.5 0.5 0.5 0.5 0.5 0.5 0.5 0.5 0.5 0.5 0.5 0.5 0.5 0.5 0.5 0.5 0.5 0.5 0.85872 0.14127999999999996 0.650739 0.34926100000000004 0.696831 0.303169 0.612733 0.38726700000000003 0.5 0.5 0.5 0.5 0.5 0.5 0.5 0.5 0.5 0.5 0.5 0.5 0.5 0.5 0.5 0.5 0.5 0.5 0.5 0.5 0.5 0.5 0.5 0.5 0.5 0.5 0.5 0.5 0.926979 0.073021 0.028216 0.971784 0.406023 0.593977 0.551933 0.448067 0.625091 0.37490900000000005 0.683406 0.31659400000000004 0.893926 0.106074 0.483811 0.516189 0.5 0.5 0.5 0.5 0.5 0.5 0.5 0.5 0.5 0.5 0.5 0.5 0.5 0.5 0.5 0.5 0.5 0.5 0.5 0.5 0.5 0.5 0.5 0.5 0.334749 0.665251 0.45574 0.54426 0.911235 0.08876499999999998 0.0581051 0.9418949 0.5 0.5 0.5 0.5 0.5 0.5 0.5 0.5 0.5 0.5 0.5 0.5 0.5 0.5 0.5 0.5 0.5 0.5 0.5 0.5 0.5 0.5 0.5 0.5 0.5 0.5 0.5 0.5 0.5 0.5 0.5 0.5 0.5 0.5 0.5 0.5 0.5 0.5 0.5 0.5 0.5 0.5 0.5 0.5 0.5 0.5 0.5 0.5 0.5 0.5 0.5 0.5 0.5 0.5 0.5 0.5 0.920135 0.07986499999999996 0.121422 0.878578 0.6617 0.33830000000000005 0.140558 0.859442 0.5 0.5 0.5 0.5 0.5 0.5 0.5 0.5 0.5 0.5 0.5 0.5 0.155263 0.844737 0.100481 0.899519 0.23796 0.76204 0.718844 0.28115599999999996 0.5 0.5 0.5 0.5 0.5 0.5 0.5 0.5 0.947329 0.05267100000000002 0.84099 0.15900999999999998 0.208731 0.791269 0.13872 0.86128 0.5 0.5 0.5 0.5 0.5 0.5 0.5 0.5 0.0821096 0.9178904 0.652541 0.34745899999999996 0.396912 0.6030880000000001 0.0173102 0.9826898 0.5 0.5 0.5 0.5 0.5 0.5 0.5 0.5 0.5 0.5 0.5 0.5 0.5 0.5 0.5 0.5 0.5 0.5 0.5 0.5 0.5 0.5 0.5 0.5 0.5 0.5 0.5 0.5 0.5 0.5 0.5 0.5 0.963622 0.03637800000000002 0.241125 0.758875 0.589303 0.410697 0.384032 0.6159680000000001 0.544322 0.455678 0.466141 0.533859 0.405649 0.5943510000000001 0.941234 0.058765999999999985 0.5 0.5 0.5 0.5 0.5 0.5 0.5 0.5 0.5 0.5 0.5 0.5 0.5 0.5 0.5 0.5 0.5 0.5 0.5 0.5 0.324998 0.675002 0.766674 0.23332600000000003 0.611399 0.388601 0.899229 0.10077100000000005 0.5 0.5 0.5 0.5 0.5 0.5 0.5 0.5 0.5 0.5 0.5 0.5 0.5 0.5 0.5 0.5 0.5 0.5 0.5 0.5 0.5 0.5 0.5 0.5 0.417705 0.582295 0.716423 0.28357699999999997 0.0344879 0.9655121 0.453375 0.546625 0.5 0.5 0.5 0.5 0.5 0.5 0.5 0.5 0.499744 0.500256 0.915742 0.08425800000000006 0.509808 0.49019199999999996 0.398974 0.6010260000000001 0.5 0.5 0.5 0.5 0.5 0.5 0.5 0.5 0.0770809 0.9229191 0.295677 0.704323 0.653603 0.34639699999999995 0.927812 0.07218800000000003 0.5 0.5 0.5 0.5 0.5 0.5 0.5 0.5 0.5 0.5 0.5 0.5 0.5 0.5 0.5 0.5 0.5 0.5 0.5 0.5 0.5 0.5 0.5 0.5 0.5 0.5 0.5 0.5 0.5 0.5 0.5 0.5 0.5 0.5 0.5 0.5 0.5 0.5 0.5 0.5 0.5 0.5 0.5 0.5 0.5 0.5 0.5 0.5 0.5 0.5 0.5 0.5 0.5 0.5 0.5 0.5 0.5 0.5 0.5 0.5 0.5 0.5 0.5 0.5 0.5 0.5 0.5 0.5 0.5 0.5 0.5 0.5 0.5 0.5 0.5 0.5 0.5 0.5 0.5 0.5 0.5 0.5 0.5 0.5 0.5 0.5 0.5 0.5 0.5 0.5 0.5 0.5 0.179915 0.820085 0.939262 0.06073799999999996 0.744709 0.25529100000000005 0.621325 0.378675 0.5 0.5 0.5 0.5 0.5 0.5 0.5 0.5 0.5 0.5 0.5 0.5 0.5 0.5 0.5 0.5 0.5 0.5 0.5 0.5 0.5 0.5 0.5 0.5 0.5 0.5 0.5 0.5 0.5 0.5 0.5 0.5 0.5 0.5 0.5 0.5 0.5 0.5 0.5 0.5 0.5 0.5 0.5 0.5 0.5 0.5 0.5 0.5 0.5 0.5 0.5 0.5 0.5 0.5 0.5 0.5 0.5 0.5 0.5 0.5 0.5 0.5 0.5 0.5 0.5 0.5 0.5 0.5 0.5 0.5 0.5 0.5 0.5 0.5 0.5 0.5 0.680757 0.31924300000000005 0.283144 0.7168559999999999 0.324927 0.675073 0.764191 0.23580900000000005 0.133909 0.8660909999999999 0.497687 0.502313 0.38176 0.61824 0.49649 0.50351 0.5 0.5 0.5 0.5 0.5 0.5 0.5 0.5 0.200027 0.799973 0.558481 0.441519 0.888372 0.11162799999999995 0.399701 0.600299 0.5 0.5 0.5 0.5 0.5 0.5 0.5 0.5 0.610191 0.38980899999999996 0.333328 0.6666719999999999 0.587462 0.41253799999999996 0.628552 0.371448 0.5 0.5 0.5 0.5 0.5 0.5 0.5 0.5 0.5 0.5 0.5 0.5 0.5 0.5 0.5 0.5 0.5 0.5 0.5 0.5 0.5 0.5 0.5 0.5 0.5 0.5 0.5 0.5 0.5 0.5 0.5 0.5 0.5 0.5 0.5 0.5 0.5 0.5 0.5 0.5 0.5 0.5 0.5 0.5 0.5 0.5 0.5 0.5
-1 -226 2 0
-1 226 -2 0
1 -227 2 0
1 227 -2 0
-2 3 0
2 -3 0
-3 -4 0
3 4 0
-4 5 0
4 -5 0
-5 6 0
5 -6 0
-6 7 0
6 -7 0
-7 -238 8 0
-7 238 -8 0
7 -239 8 0
7 239 -8 0
-8 9 0
8 -9 0
-9 -10 0
9 10 0
-10 -11 0
10 11 0
-11 -12 0
11 12 0
-12 -248 13 0
-12 248 -13 0
12 -249 13 0
12 249 -13 0
-13 14 0
13 -14 0
-14 -15 0
14 15 0
-1 16 0
1 -16 0
-16 -2 -256 17 0
-16 -2 256 -17 0
-16 2 -257 17 0
-16 2 257 -17 0
16 -2 -258 17 0
16 -2 258 -17 0
16 2 -259 17 0
16 2 259 -17 0
-17 -3 -18 0
-17 3 18 0
17 -3 18 0
17 3 18 0
-18 -4 -19 0
-18 4 19 0
18 -4 -19 0
18 4 19 0
-19 -5 20 0
-19 5 20 0
19 -5 20 0
19 5 -20 0
-20 -6 21 0
-20 6 21 0
20 -6 -21 0
20 6 -21 0
-21 -7 22 0
-21 7 -22 0
21 -7 -22 0
21 7 -22 0
-22 -8 -23 0
-22 8 -23 0
22 -8 23 0
22 8 -23 0
-23 -9 -284 24 0
-23 -9 284 -24 0
-23 9 -285 24 0
-23 9 285 -24 0
23 -9 -286 24 0
23 -9 286 -24 0
23 9 -287 24 0
23 9 287 -24 0
-24 -10 -288 25 0
-24 -10 288 -25 0
-24 10 -289 25 0
-24 10 289 -25 0
24 -10 -290 25 0
24 -10 290 -25 0
24 10 -291 25 0
24 10 291 -25 0
-25 -11 -26 0
-25 11 26 0
25 -11 26 0
25 11 26 0
-26 -12 -296 27 0
-26 -12 296 -27 0
-26 12 -297 27 0
-26 12 297 -27 0
26 -12 -298 27 0
26 -12 298 -27 0
26 12 -299 27 0
26 12 299 -27 0
-27 -13 -28 0
-27 13 -28 0
27 -13 28 0
27 13 -28 0
-28 -14 -29 0
-28 14 29 0
28 -14 -29 0
28 14 29 0
-29 -15 -30 0
-29 15 30 0
29 -15 30 0
29 15 30 0
-16 31 0
16 -31 0
-31 -17 32 0
-31 17 32 0
31 -17 -32 0
31 17 32 0
-32 -18 -33 0
-32 18 -33 0
32 -18 33 0
32 18 33 0
-33 -19 34 0
-33 19 -34 0
33 -19 -34 0
33 19 -34 0
-34 -20 35 0
-34 20 35 0
34 -20 -35 0
34 20 -35 0
-35 -21 -36 0
-35 21 36 0
35 -21 36 0
35 21 -36 0
-36 -22 -37 0
-36 22 37 0
36 -22 -37 0
36 22 37 0
-37 -23 38 0
-37 23 38 0
37 -23 -38 0
37 23 -38 0
-38 -24 39 0
-38 24 -39 0
38 -24 -39 0
38 24 -39 0
-39 -25 -346 40 0
-39 -25 346 -40 0
-39 25 -347 40 0
-39 25 347 -40 0
39 -25 -348 40 0
39 -25 348 -40 0
39 25 -349 40 0
39 25 349 -40 0
-40 -26 -41 0
-40 26 41 0
40 -26 -41 0
40 26 -41 0
-41 -27 -42 0
-41 27 -42 0
41 -27 -42 0
41 27 42 0
-42 -28 -358 43 0
-42 -28 358 -43 0
-42 28 -359 43 0
-42 28 359 -43 0
42 -28 -360 43 0
42 -28 360 -43 0
42 28 -361 43 0
42 28 361 -43 0
-43 -29 -44 0
-43 29 44 0
43 -29 44 0
43 29 44 0
-44 -30 -45 0
-44 30 45 0
44 -30 45 0
44 30 45 0
-31 46 0
31 -46 0
-46 -32 -372 47 0
-46 -32 372 -47 0
-46 32 -373 47 0
-46 32 373 -47 0
46 -32 -374 47 0
46 -32 374 -47 0
46 32 -375 47 0
46 32 375 -47 0
-47 -33 -48 0
-47 33 -48 0
47 -33 48 0
47 33 48 0
-48 -34 49 0
-48 34 -49 0
48 -34 -49 0
48 34 -49 0
-49 -35 50 0
-49 35 50 0
49 -35 50 0
49 35 -50 0
-50 -36 -51 0
-50 36 51 0
50 -36 51 0
50 36 51 0
-51 -37 -52 0
-51 37 52 0
51 -37 -52 0
51 37 -52 0
-52 -38 53 0
-52 38 53 0
52 -38 -53 0
52 38 -53 0
-53 -39 -54 0
-53 39 -54 0
53 -39 -54 0
53 39 54 0
-54 -40 -55 0
-54 40 -55 0
54 -40 55 0
54 40 55 0
-55 -41 -56 0
-55 41 -56 0
55 -41 -56 0
55 41 56 0
-56 -42 -57 0
-56 42 57 0
56 -42 57 0
56 42 57 0
-57 -43 -416 58 0
-57 -43 416 -58 0
-57 43 -417 58 0
-57 43 417 -58 0
57 -43 -418 58 0
57 -43 418 -58 0
57 43 -419 58 0
57 43 419 -58 0
-58 -44 59 0
-58 44 -59 0
58 -44 -59 0
58 44 -59 0
-59 -45 -60 0
-59 45 -60 0
59 -45 60 0
59 45 60 0
-46 -61 0
46 61 0
-61 -47 62 0
-61 47 -62 0
61 -47 62 0
61 47 62 0
-62 -48 -434 63 0
-62 -48 434 -63 0
-62 48 -435 63 0
-62 48 435 -63 0
62 -48 -436 63 0
62 -48 436 -63 0
62 48 -437 63 0
62 48 437 -63 0
-63 -49 64 0
-63 49 -64 0
63 -49 64 0
63 49 -64 0
-64 -50 -65 0
-64 50 -65 0
64 -50 65 0
64 50 -65 0
-65 -51 -66 0
-65 51 -66 0
65 -51 66 0
65 51 -66 0
-66 -52 67 0
-66 52 -67 0
66 -52 -67 0
66 52 67 0
-67 -53 -68 0
-67 53 -68 0
67 -53 68 0
67 53 68 0
-68 -54 -69 0
-68 54 -69 0
68 -54 69 0
68 54 69 0
-69 -55 70 0
-69 55 -70 0
69 -55 70 0
69 55 -70 0
-70 -56 71 0
-70 56 -71 0
70 -56 71 0
70 56 -71 0
-71 -57 72 0
-71 57 -72 0
71 -57 -72 0
71 57 72 0
-72 -58 73 0
-72 58 -73 0
72 -58 73 0
72 58 73 0
-73 -59 74 0
-73 59 74 0
73 -59 74 0
73 59 -74 0
-74 -60 -75 0
-74 60 -75 0
74 -60 75 0
74 60 -75 0
-61 -76 0
61 76 0
-76 -62 -77 0
-76 62 -77 0
76 -62 77 0
76 62 77 0
-77 -63 -78 0
-77 63 -78 0
77 -63 78 0
77 63 -78 0
-78 -64 -79 0
-78 64 79 0
78 -64 -79 0
78 64 79 0
-79 -65 -80 0
-79 65 -80 0
79 -65 80 0
79 65 80 0
-80 -66 -504 81 0
-80 -66 504 -81 0
-80 66 -505 81 0
-80 66 505 -81 0
80 -66 -506 81 0
80 -66 506 -81 0
80 66 -507 81 0
80 66 507 -81 0
-81 -67 82 0
-81 67 82 0
81 -67 82 0
81 67 -82 0
-82 -68 -512 83 0
-82 -68 512 -83 0
-82 68 -513 83 0
-82 68 513 -83 0
82 -68 -514 83 0
82 -68 514 -83 0
82 68 -515 83 0
82 68 515 -83 0
-83 -69 -84 0
-83 69 84 0
83 -69 84 0
83 69 -84 0
-84 -70 85 0
-84 70 -85 0
84 -70 85 0
84 70 85 0
-85 -71 86 0
-85 71 -86 0
85 -71 86 0
85 71 -86 0
-86 -72 -87 0
-86 72 87 0
86 -72 -87 0
86 72 87 0
-87 -73 -532 88 0
-87 -73 532 -88 0
-87 73 -533 88 0
-87 73 533 -88 0
87 -73 -534 88 0
87 -73 534 -88 0
87 73 -535 88 0
87 73 535 -88 0
-88 -74 -89 0
-88 74 -89 0
88 -74 89 0
88 74 89 0
-89 -75 -90 0
-89 75 -90 0
89 -75 90 0
89 75 -90 0
-76 91 0
76 -91 0
-91 -77 -92 0
-91 77 -92 0
91 -77 -92 0
91 77 92 0
-92 -78 -93 0
-92 78 -93 0
92 -78 93 0
92 78 -93 0
-93 -79 94 0
-93 79 -94 0
93 -79 94 0
93 79 -94 0
-94 -80 -558 95 0
-94 -80 558 -95 0
-94 80 -559 95 0
-94 80 559 -95 0
94 -80 -560 95 0
94 -80 560 -95 0
94 80 -561 95 0
94 80 561 -95 0
-95 -81 96 0
-95 81 -96 0
95 -81 -96 0
95 81 -96 0
-96 -82 -97 0
-96 82 97 0
96 -82 97 0
96 82 -97 0
-97 -83 -98 0
-97 83 98 0
97 -83 -98 0
97 83 -98 0
-98 -84 99 0
-98 84 -99 0
98 -84 99 0
98 84 99 0
-99 -85 100 0
-99 85 -100 0
99 -85 -100 0
99 85 -100 0
-100 -86 101 0
-100 86 101 0
100 -86 101 0
100 86 -101 0
-101 -87 -586 102 0
-101 -87 586 -102 0
-101 87 -587 102 0
-101 87 587 -102 0
101 -87 -588 102 0
101 -87 588 -102 0
101 87 -589 102 0
101 87 589 -102 0
-102 -88 -103 0
-102 88 103 0
102 -88 -103 0
102 88 -103 0
-103 -89 -594 104 0
-103 -89 594 -104 0
-103 89 -595 104 0
-103 89 595 -104 0
103 -89 -596 104 0
103 -89 596 -104 0
103 89 -597 104 0
103 89 597 -104 0
-104 -90 105 0
-104 90 105 0
104 -90 105 0
104 90 -105 0
-91 -602 106 0
-91 602 -106 0
91 -603 106 0
91 603 -106 0
-106 -92 -107 0
-106 92 107 0
106 -92 107 0
106 92 107 0
-107 -93 -608 108 0
-107 -93 608 -108 0
-107 93 -609 108 0
-107 93 609 -108 0
107 -93 -610 108 0
107 -93 610 -108 0
107 93 -611 108 0
107 93 611 -108 0
-108 -94 -109 0
-108 94 109 0
108 -94 -109 0
108 94 -109 0
-109 -95 110 0
-109 95 110 0
109 -95 110 0
109 95 -110 0
-110 -96 111 0
-110 96 -111 0
110 -96 -111 0
110 96 -111 0
-111 -97 -112 0
-111 97 112 0
111 -97 112 0
111 97 112 0
-112 -98 113 0
-112 98 -113 0
112 -98 -113 0
112 98 113 0
-113 -99 -114 0
-113 99 114 0
113 -99 -114 0
113 99 114 0
-114 -100 -636 115 0
-114 -100 636 -115 0
-114 100 -637 115 0
-114 100 637 -115 0
114 -100 -638 115 0
114 -100 638 -115 0
114 100 -639 115 0
114 100 639 -115 0
-115 -101 116 0
-115 101 -116 0
115 -101 -116 0
115 101 -116 0
-116 -102 117 0
-116 102 117 0
116 -102 -117 0
116 102 117 0
-117 -103 -118 0
-117 103 118 0
117 -103 118 0
117 103 -118 0
-118 -104 -652 119 0
-118 -104 652 -119 0
-118 104 -653 119 0
-118 104 653 -119 0
118 -104 -654 119 0
118 -104 654 -119 0
118 104 -655 119 0
118 104 655 -119 0
-119 -105 -120 0
-119 105 -120 0
119 -105 120 0
119 105 -120 0
-106 121 0
106 -121 0
-121 -107 122 0
-121 107 -122 0
121 -107 122 0
121 107 -122 0
-122 -108 123 0
-122 108 -123 0
122 -108 123 0
122 108 123 0
-123 -109 -124 0
-123 109 -124 0
123 -109 -124 0
123 109 124 0
-124 -110 -674 125 0
-124 -110 674 -125 0
-124 110 -675 125 0
-124 110 675 -125 0
124 -110 -676 125 0
124 -110 676 -125 0
124 110 -677 125 0
124 110 677 -125 0
-125 -111 -678 126 0
-125 -111 678 -126 0
-125 111 -679 126 0
-125 111 679 -126 0
125 -111 -680 126 0
125 -111 680 -126 0
125 111 -681 126 0
125 111 681 -126 0
-126 -112 -682 127 0
-126 -112 682 -127 0
-126 112 -683 127 0
-126 112 683 -127 0
126 -112 -684 127 0
126 -112 684 -127 0
126 112 -685 127 0
126 112 685 -127 0
-127 -113 128 0
-127 113 -128 0
127 -113 128 0
127 113 128 0
-128 -114 -129 0
-128 114 129 0
128 -114 129 0
128 114 -129 0
-129 -115 130 0
-129 115 -130 0
129 -115 -130 0
129 115 130 0
-130 -116 -698 131 0
-130 -116 698 -131 0
-130 116 -699 131 0
-130 116 699 -131 0
130 -116 -700 131 0
130 -116 700 -131 0
130 116 -701 131 0
130 116 701 -131 0
-131 -117 -702 132 0
-131 -117 702 -132 0
-131 117 -703 132 0
-131 117 703 -132 0
131 -117 -704 132 0
131 -117 704 -132 0
131 117 -705 132 0
131 117 705 -132 0
-132 -118 133 0
-132 118 -133 0
132 -118 133 0
132 118 133 0
-133 -119 -710 134 0
-133 -119 710 -134 0
-133 119 -711 134 0
-133 119 711 -134 0
133 -119 -712 134 0
133 -119 712 -134 0
133 119 -713 134 0
133 119 713 -134 0
-134 -120 -135 0
-134 120 -135 0
134 -120 135 0
134 120 -135 0
-121 -718 136 0
-121 718 -136 0
121 -719 136 0
121 719 -136 0
-136 -122 -720 137 0
-136 -122 720 -137 0
-136 122 -721 137 0
-136 122 721 -137 0
136 -122 -722 137 0
136 -122 722 -137 0
136 122 -723 137 0
136 122 723 -137 0
-137 -123 -138 0
-137 123 -138 0
137 -123 -138 0
137 123 138 0
-138 -124 -139 0
-138 124 -139 0
138 -124 139 0
138 124 139 0
-139 -125 -140 0
-139 125 140 0
139 -125 140 0
139 125 140 0
-140 -126 -141 0
-140 126 -141 0
140 -126 141 0
140 126 -141 0
-141 -127 142 0
-141 127 -142 0
141 -127 -142 0
141 127 142 0
-142 -128 143 0
-142 128 143 0
142 -128 143 0
142 128 -143 0
-143 -129 -144 0
-143 129 -144 0
143 -129 144 0
143 129 -144 0
-144 -130 145 0
-144 130 -145 0
144 -130 145 0
144 130 145 0
-145 -131 -146 0
-145 131 146 0
145 -131 -146 0
145 131 146 0
-146 -132 -760 147 0
-146 -132 760 -147 0
-146 132 -761 147 0
-146 132 761 -147 0
146 -132 -762 147 0
146 -132 762 -147 0
146 132 -763 147 0
146 132 763 -147 0
-147 -133 148 0
-147 133 148 0
147 -133 -148 0
147 133 148 0
-148 -134 149 0
-148 134 -149 0
148 -134 -149 0
148 134 149 0
-149 -135 -150 0
-149 135 150 0
149 -135 -150 0
149 135 -150 0
-136 -151 0
136 151 0
-151 -137 -778 152 0
-151 -137 778 -152 0
-151 137 -779 152 0
-151 137 779 -152 0
151 -137 -780 152 0
151 -137 780 -152 0
151 137 -781 152 0
151 137 781 -152 0
-152 -138 -782 153 0
-152 -138 782 -153 0
-152 138 -783 153 0
-152 138 783 -153 0
152 -138 -784 153 0
152 -138 784 -153 0
152 138 -785 153 0
152 138 785 -153 0
-153 -139 154 0
-153 139 -154 0
153 -139 154 0
153 139 -154 0
-154 -140 155 0
-154 140 -155 0
154 -140 -155 0
154 140 -155 0
-155 -141 -156 0
-155 141 156 0
155 -141 -156 0
155 141 156 0
-156 -142 -798 157 0
-156 -142 798 -157 0
-156 142 -799 157 0
-156 142 799 -157 0
156 -142 -800 157 0
156 -142 800 -157 0
156 142 -801 157 0
156 142 801 -157 0
-157 -143 -158 0
-157 143 158 0
157 -143 -158 0
157 143 -158 0
-158 -144 159 0
-158 144 -159 0
158 -144 -159 0
158 144 -159 0
-159 -145 -160 0
-159 145 160 0
159 -145 160 0
159 145 -160 0
-160 -146 161 0
-160 146 161 0
160 -146 -161 0
160 146 161 0
-161 -147 162 0
-161 147 162 0
161 -147 -162 0
161 147 162 0
-162 -148 -163 0
-162 148 -163 0
162 -148 163 0
162 148 -163 0
-163 -149 164 0
-163 149 -164 0
163 -149 -164 0
163 149 164 0
-164 -150 -830 165 0
-164 -150 830 -165 0
-164 150 -831 165 0
-164 150 831 -165 0
164 -150 -832 165 0
164 -150 832 -165 0
164 150 -833 165 0
164 150 833 -165 0
-151 -166 0
151 166 0
-166 -152 -167 0
-166 152 167 0
166 -152 167 0
166 152 -167 0
-167 -153 -840 168 0
-167 -153 840 -168 0
-167 153 -841 168 0
-167 153 841 -168 0
167 -153 -842 168 0
167 -153 842 -168 0
167 153 -843 168 0
167 153 843 -168 0
-168 -154 169 0
-168 154 -169 0
168 -154 -169 0
168 154 -169 0
-169 -155 -848 170 0
-169 -155 848 -170 0
-169 155 -849 170 0
-169 155 849 -170 0
169 -155 -850 170 0
169 -155 850 -170 0
169 155 -851 170 0
169 155 851 -170 0
-170 -156 171 0
-170 156 -171 0
170 -156 171 0
170 156 171 0
-171 -157 -856 172 0
-171 -157 856 -172 0
-171 157 -857 172 0
-171 157 857 -172 0
171 -157 -858 172 0
171 -157 858 -172 0
171 157 -859 172 0
171 157 859 -172 0
-172 -158 173 0
-172 158 173 0
172 -158 -173 0
172 158 173 0
-173 -159 -174 0
-173 159 174 0
173 -159 174 0
173 159 174 0
-174 -160 175 0
-174 160 175 0
174 -160 -175 0
174 160 -175 0
-175 -161 176 0
-175 161 -176 0
175 -161 176 0
175 161 -176 0
-176 -162 -876 177 0
-176 -162 876 -177 0
-176 162 -877 177 0
-176 162 877 -177 0
176 -162 -878 177 0
176 -162 878 -177 0
176 162 -879 177 0
176 162 879 -177 0
-177 -163 -880 178 0
-177 -163 880 -178 0
-177 163 -881 178 0
-177 163 881 -178 0
177 -163 -882 178 0
177 -163 882 -178 0
177 163 -883 178 0
177 163 883 -178 0
-178 -164 -179 0
-178 164 179 0
178 -164 179 0
178 164 -179 0
-179 -165 -180 0
-179 165 -180 0
179 -165 -180 0
179 165 180 0
-166 181 0
166 -181 0
-181 -167 -894 182 0
-181 -167 894 -182 0
-181 167 -895 182 0
-181 167 895 -182 0
181 -167 -896 182 0
181 -167 896 -182 0
181 167 -897 182 0
181 167 897 -182 0
-182 -168 183 0
-182 168 -183 0
182 -168 183 0
182 168 -183 0
-183 -169 184 0
-183 169 184 0
183 -169 184 0
183 169 -184 0
-184 -170 -185 0
-184 170 -185 0
184 -170 185 0
184 170 -185 0
-185 -171 -910 186 0
-185 -171 910 -186 0
-185 171 -911 186 0
-185 171 911 -186 0
185 -171 -912 186 0
185 -171 912 -186 0
185 171 -913 186 0
185 171 913 -186 0
-186 -172 187 0
-186 172 187 0
186 -172 187 0
186 172 -187 0
-187 -173 -918 188 0
-187 -173 918 -188 0
-187 173 -919 188 0
-187 173 919 -188 0
187 -173 -920 188 0
187 -173 920 -188 0
187 173 -921 188 0
187 173 921 -188 0
-188 -174 -189 0
-188 174 -189 0
188 -174 189 0
188 174 -189 0
-189 -175 -926 190 0
-189 -175 926 -190 0
-189 175 -927 190 0
-189 175 927 -190 0
189 -175 -928 190 0
189 -175 928 -190 0
189 175 -929 190 0
189 175 929 -190 0
-190 -176 -191 0
-190 176 -191 0
190 -176 191 0
190 176 -191 0
-191 -177 192 0
-191 177 192 0
191 -177 -192 0
191 177 192 0
-192 -178 193 0
-192 178 -193 0
192 -178 -193 0
192 178 193 0
-193 -179 -194 0
-193 179 -194 0
193 -179 -194 0
193 179 194 0
-194 -180 -195 0
-194 180 195 0
194 -180 -195 0
194 180 195 0
-181 196 0
181 -196 0
-196 -182 -197 0
-196 182 -197 0
196 -182 197 0
196 182 -197 0
-197 -183 -198 0
-197 183 198 0
197 -183 198 0
197 183 198 0
-198 -184 -199 0
-198 184 199 0
198 -184 -199 0
198 184 199 0
-199 -185 -200 0
-199 185 200 0
199 -185 200 0
199 185 200 0
-200 -186 201 0
-200 186 201 0
200 -186 -201 0
200 186 201 0
-201 -187 202 0
-201 187 -202 0
201 -187 -202 0
201 187 -202 0
-202 -188 -976 203 0
-202 -188 976 -203 0
-202 188 -977 203 0
-202 188 977 -203 0
202 -188 -978 203 0
202 -188 978 -203 0
202 188 -979 203 0
202 188 979 -203 0
-203 -189 -204 0
-203 189 -204 0
203 -189 -204 0
203 189 204 0
-204 -190 205 0
-204 190 205 0
204 -190 -205 0
204 190 205 0
-205 -191 206 0
-205 191 206 0
205 -191 -206 0
205 191 -206 0
-206 -192 -207 0
-206 192 -207 0
206 -192 207 0
206 192 -207 0
-207 -193 -208 0
-207 193 -208 0
207 -193 208 0
207 193 -208 0
-208 -194 209 0
-208 194 209 0
208 -194 209 0
208 194 -209 0
-209 -195 -210 0
-209 195 -210 0
209 -195 -210 0
209 195 210 0
-196 -211 0
196 211 0
-211 -197 212 0
-211 197 -212 0
211 -197 212 0
211 197 -212 0
-212 -198 -213 0
-212 198 -213 0
212 -198 -213 0
212 198 213 0
-213 -199 -1018 214 0
-213 -199 1018 -214 0
-213 199 -1019 214 0
-213 199 1019 -214 0
213 -199 -1020 214 0
213 -199 1020 -214 0
213 199 -1021 214 0
213 199 1021 -214 0
-214 -200 -1022 215 0
-214 -200 1022 -215 0
-214 200 -1023 215 0
-214 200 1023 -215 0
214 -200 -1024 215 0
214 -200 1024 -215 0
214 200 -1025 215 0
214 200 1025 -215 0
-215 -201 216 0
-215 201 216 0
215 -201 -216 0
215 201 216 0
-216 -202 -1030 217 0
-216 -202 1030 -217 0
-216 202 -1031 217 0
-216 202 1031 -217 0
216 -202 -1032 217 0
216 -202 1032 -217 0
216 202 -1033 217 0
216 202 1033 -217 0
-217 -203 -218 0
-217 203 218 0
217 -203 -218 0
217 203 218 0
-218 -204 -1038 219 0
-218 -204 1038 -219 0
-218 204 -1039 219 0
-218 204 1039 -219 0
218 -204 -1040 219 0
218 -204 1040 -219 0
218 204 -1041 219 0
218 204 1041 -219 0
-219 -205 -220 0
-219 205 220 0
219 -205 220 0
219 205 220 0
-220 -206 -221 0
-220 206 -221 0
220 -206 221 0
220 206 -221 0
-221 -207 222 0
-221 207 222 0
221 -207 -222 0
221 207 -222 0
-222 -208 223 0
-222 208 223 0
222 -208 223 0
222 208 -223 0
-223 -209 224 0
-223 209 -224 0
223 -209 224 0
223 209 224 0
-224 -210 225 0
-224 210 225 0
224 -210 -225 0
224 210 -225 0
225 0
