data/benchmarks/bayes/75-15-1-q.gr
p tw 1065 1164
166 181
63 434
198 213
15 30
67 68
68 512
47 62
99 100
132 704
110 676
176 878
59 73
125 674
114 637
8 238
107 122
139 154
8 9
159 160
40 41
80 504
199 214
48 63
100 101
80 95
132 133
92 106
202 1033
140 155
192 193
116 701
152 785
41 42
172 187
217 1031
73 74
184 198
28 359
118 652
33 47
81 96
133 134
214 1025
165 831
14 15
25 290
42 361
117 702
94 560
125 139
171 911
22 37
39 346
74 75
106 107
137 778
173 188
66 80
114 129
166 167
47 48
158 172
203 979
206 221
7 21
55 70
107 108
213 1020
131 703
99 113
147 162
43 361
151 779
199 200
48 49
157 859
80 81
191 205
107 611
40 54
140 141
186 913
46 372
169 851
132 146
152 780
153 843
81 82
172 856
12 248
189 927
73 87
182 897
173 174
188 977
22 23
165 179
14 28
104 596
114 115
87 534
206 207
48 435
55 56
134 713
198 212
176 877
47 61
131 698
147 148
114 636
207 208
139 153
124 677
21 36
199 213
167 895
127 682
80 94
150 833
113 128
83 514
116 700
152 784
172 186
205 220
54 69
181 182
10 291
146 161
42 360
25 289
165 830
171 910
173 187
87 102
119 710
214 215
179 194
28 43
206 220
68 515
213 1019
88 103
131 702
168 840
9 286
120 135
185 911
21 22
151 778
147 161
180 195
157 858
29 44
107 610
61 76
113 114
186 912
121 136
153 168
205 206
2 17
54 55
153 842
189 926
62 77
94 109
146 147
163 883
182 896
154 169
188 976
3 18
35 50
87 88
39 349
95 110
127 142
179 180
28 29
187 202
134 712
219 1039
36 51
88 89
68 83
112 684
202 977
62 436
128 143
132 760
160 175
29 30
82 512
61 62
142 801
124 676
21 35
69 84
121 122
167 894
101 116
153 154
2 3
113 127
150 832
161 176
213 214
83 513
137 722
10 25
62 63
204 1041
94 95
205 219
2 259
54 68
216 1033
102 117
154 155
13 27
130 701
3 4
35 36
146 160
91 602
194 209
105 119
43 58
95 96
164 833
127 128
147 762
87 101
135 150
103 594
187 188
36 37
173 918
7 239
68 69
87 586
179 193
28 42
76 91
128 129
160 161
185 910
9 285
120 134
168 183
220 221
79 93
69 70
178 880
101 102
43 417
188 921
161 162
20 34
10 11
127 685
171 859
153 167
2 16
102 103
94 108
163 882
194 195
53 67
43 44
35 49
24 287
157 798
127 141
17 257
104 652
86 100
76 77
9 24
200 1025
177 883
106 603
219 1038
68 82
112 683
168 169
202 976
27 41
62 435
153 782
160 174
142 800
42 57
215 1022
101 115
80 559
134 149
60 74
204 1040
122 723
137 721
126 684
2 258
75 90
130 700
12 299
16 31
181 894
164 832
147 761
218 1041
24 291
108 123
9 10
121 718
177 878
167 843
49 64
186 200
133 710
109 124
170 848
9 284
42 43
201 216
82 515
82 97
134 135
43 416
2 226
188 920
142 157
171 858
126 679
23 38
73 533
136 720
23 285
83 98
115 130
102 587
16 17
162 876
175 190
58 419
56 71
108 109
24 286
193 207
111 681
116 131
138 784
25 349
17 256
49 50
208 223
200 1024
57 72
87 589
109 110
89 104
32 375
177 882
167 182
149 164
201 202
50 51
30 45
82 83
27 296
42 56
81 505
90 105
142 143
146 760
142 799
47 372
200 215
80 558
23 24
134 148
182 197
83 84
126 683
141 156
115 116
75 89
119 653
123 138
34 48
175 176
24 25
12 298
66 507
56 57
156 800
16 259
199 1018
64 79
95 561
116 117
174 189
218 1040
155 850
115 637
108 122
156 171
208 209
67 81
157 801
57 58
93 609
125 678
89 90
104 655
167 168
177 877
167 842
49 63
159 173
26 299
97 112
8 22
149 150
187 918
207 222
189 204
153 785
100 114
148 163
200 201
82 96
192 206
182 183
188 919
41 55
214 1020
31 32
141 142
126 678
23 37
40 346
57 417
73 532
123 124
133 147
136 719
23 284
13 249
190 928
115 129
181 196
215 216
102 586
74 88
64 65
122 137
174 175
58 418
56 70
156 157
15 29
132 703
5 6
138 783
25 348
110 675
88 535
107 121
97 98
108 611
200 1023
167 181
89 103
32 374
189 190
48 62
148 149
170 851
202 1032
30 44
89 597
140 154
63 78
81 504
217 1030
200 214
28 358
222 223
81 95
214 1024
101 589
4 19
141 155
94 559
22 36
100 639
122 123
119 652
136 723
66 506
156 799
114 128
16 258
37 52
162 879
174 188
95 560
203 978
63 437
155 849
55 69
115 636
93 608
125 677
43 360
70 85
167 841
26 298
80 507
207 221
11 26
63 64
148 162
152 779
169 850
4 5
118 655
214 1019
44 59
57 416
117 705
136 718
190 927
13 248
104 595
137 781
37 38
87 533
122 136
196 211
155 170
48 434
199 1021
132 702
176 876
96 111
110 674
18 33
70 71
88 534
175 929
125 681
108 610
130 131
188 203
32 373
11 12
170 185
129 144
46 375
89 596
202 1031
116 699
152 783
163 164
172 859
44 45
214 1023
101 588
203 218
10 290
162 177
42 359
25 288
94 558
100 638
144 159
196 197
103 118
155 156
137 138
195 210
203 977
96 97
63 436
18 19
68 514
177 192
88 102
131 701
136 151
188 189
213 1018
125 676
114 639
43 359
180 194
118 133
170 171
29 43
80 506
77 92
107 609
129 130
157 857
186 911
210 225
111 112
169 184
169 849
152 778
221 222
217 1033
153 841
151 166
203 204
62 76
110 125
162 163
214 1018
182 895
1 227
154 168
144 145
165 833
3 17
202 217
51 66
103 104
117 704
171 913
190 926
104 594
39 348
137 780
95 109
85 86
87 532
143 158
155 169
119 713
187 201
134 711
177 178
36 50
136 137
96 110
128 142
131 705
118 119
168 843
77 78
188 202
151 781
124 675
69 83
169 170
175 926
129 143
150 831
161 175
46 374
83 512
151 152
10 24
116 698
110 111
152 782
202 1030
189 929
172 858
216 1032
102 116
202 203
25 40
51 52
10 289
162 176
42 358
188 979
194 208
43 57
143 144
103 117
135 149
7 238
17 32
195 209
48 437
203 976
63 435
68 513
176 879
131 700
168 182
132 763
114 638
8 239
50 65
157 856
77 91
107 608
167 897
186 910
127 684
169 183
169 848
153 840
25 26
110 124
163 881
182 894
1 226
24 39
165 832
202 216
25 291
51 65
171 912
84 99
39 347
17 18
143 157
176 191
103 597
119 712
9 23
173 921
134 710
106 602
112 682
117 132
62 434
213 1021
131 704
168 842
185 913
209 224
151 780
58 73
124 674
178 883
150 165
150 830
204 1039
122 722
46 373
31 46
137 720
2 257
91 106
216 1031
130 699
183 198
10 288
32 47
84 85
158 159
217 218
164 831
147 760
24 290
124 139
176 177
5 20
17 31
65 80
117 118
219 1041
109 123
157 172
131 699
202 979
209 210
6 21
58 59
132 762
201 215
82 514
191 192
50 64
98 113
215 1025
167 896
142 156
127 683
171 857
190 205
39 54
91 92
83 515
224 225
83 97
131 146
183 184
32 33
163 880
175 189
24 38
72 87
124 125
181 897
24 285
84 98
111 680
116 130
164 179
216 217
65 66
176 190
103 596
208 222
119 711
173 920
198 199
57 71
87 588
157 158
177 881
6 7
117 131
133 713
149 163
139 140
185 912
168 841
9 287
98 99
197 212
209 223
58 72
142 798
178 882
90 104
190 191
43 419
39 40
150 164
204 1038
182 196
122 721
172 173
126 682
131 132
2 256
123 137
216 1030
223 224
130 698
12 297
72 73
183 197
32 46
64 78
164 165
164 830
218 1039
24 289
124 138
156 170
157 800
5 19
17 259
38 53
104 654
177 876
65 79
97 111
219 1040
197 198
130 145
112 685
157 171
202 978
62 437
6 20
153 784
132 761
189 203
82 513
71 86
27 299
98 112
215 1024
146 763
188 918
163 178
47 375
80 561
12 27
171 856
190 204
39 53
137 723
104 119
131 145
13 28
45 60
58 417
72 86
91 603
181 896
105 120
24 284
137 152
111 679
147 763
138 782
38 39
25 347
164 178
103 595
46 61
173 919
78 93
200 1022
87 587
177 880
138 153
133 712
170 850
187 921
19 34
71 72
197 211
79 94
63 77
111 126
178 881
12 13
43 418
171 186
20 35
4 18
122 720
52 67
104 105
126 681
40 349
112 127
73 535
13 14
23 287
136 722
12 296
66 505
102 589
156 798
16 257
37 51
53 68
85 100
162 878
204 219
95 559
218 1038
145 160
155 848
24 288
46 47
26 41
78 79
157 799
17 258
38 52
104 653
86 101
70 84
138 139
167 840
26 297
19 20
130 144
178 193
27 42
11 25
79 80
153 783
71 85
119 134
171 172
27 298
81 507
20 21
215 1023
146 762
28 361
52 53
47 374
118 654
80 560
12 26
163 177
60 75
44 58
112 113
126 685
104 118
152 167
204 205
1 16
53 54
119 655
45 59
58 416
93 108
145 146
181 895
199 1020
26 27
137 151
111 678
185 200
25 346
115 639
86 87
18 32
88 533
121 719
175 928
93 611
125 680
78 92
108 609
126 141
177 879
178 179
27 28
32 372
138 152
186 201
170 184
133 711
170 849
187 920
19 33
119 120
89 595
111 125
211 212
171 185
2 227
214 1022
101 587
203 217
52 66
152 153
126 680
57 419
1 2
40 348
73 534
112 126
100 637
136 721
23 286
144 158
212 213
93 94
66 504
102 588
204 218
16 256
162 877
85 99
185 186
95 558
145 159
132 705
177 191
193 208
138 785
26 40
110 677
126 127
59 74
125 675
43 358
186 187
118 132
26 296
80 505
218 219
178 192
210 224
92 107
119 133
217 1032
27 297
81 506
219 220
146 761
28 360
118 653
47 373
33 48
184 199
125 140
117 703
94 561
152 166
137 779
119 654
34 49
66 81
156 801
93 107
193 194
199 1019
158 173
7 22
59 60
155 851
115 638
185 199
88 532
67 82
175 927
93 610
99 114
125 679
108 608
126 140
159 174
191 206
8 23
187 919
40 55
92 93
89 594
100 115
132 147
152 781
184 185
33 34
189 928
172 857
12 249
192 207
41 56
25 39
101 586
73 88
125 126
214 1021
188 978
57 418
40 347
133 148
165 180
34 35
100 636
190 929
14 29
66 67
104 597
74 89
87 535
106 121
7 8
48 436
